%nprocshared=16
%mem=32GB
#p opt=modredundant b3lyp/6-31g(d) empiricaldispersion=gd3bj

title

0 1
 C                 -0.19426300   -0.29199900   -0.21290800
 O                 -0.25532100   -0.66525600   -1.45425500
 C                 -0.33094500   -1.45422100    0.81631600
 H                 -0.18039400   -1.13043800    1.85373400
 H                 -1.34066500   -1.87301000    0.71427200
 H                  0.39706800   -2.23394900    0.57058300
 Cl                -1.15224600    0.92328400    0.19373400
 N                  2.51641600    0.54021000    0.13564200
 N                  1.45201105    0.29768445    0.10942258
 N                  3.88103773    0.85114019    0.16925664
 Na                 1.47825253   -0.98568827   -2.51992192

B 1 9 S 100 -0.01

