#p hf sto-3g

92

0 1
 Pd                -0.53954400   -1.70208000   -0.16307400
 P                  1.34230200   -0.39680400    0.05531800
 C                  0.78570500    1.32802400   -0.50374900
 C                  1.72775700    2.32926000   -0.86361300
 C                  1.31908300    3.57600200   -1.33106200
 H                  2.04377000    4.33182700   -1.60841200
 C                 -0.03730100    3.87339100   -1.44448200
 H                 -0.33163700    4.84874200   -1.81311900
 C                 -0.98600500    2.92385700   -1.08041900
 C                 -0.59826700    1.64713500   -0.60138300
 C                 -1.69889600    0.68796900   -0.21764900
 C                 -2.38991700    0.81478300    0.99640100
 C                 -3.33037700   -0.17885300    1.36139200
 C                 -3.56198100   -1.30694300    0.59036500
 C                 -2.89543500   -1.41343900   -0.66011000
 H                 -3.20543600   -2.19137700   -1.35177800
 C                 -2.02249600   -0.39394800   -1.12841700
 C                 -2.16412100    1.97681600    1.96301100
 H                 -1.34261300    2.58798900    1.57478500
 C                 -1.75743000    1.51202500    3.37554600
 H                 -2.55970600    0.94503300    3.86169900
 H                 -1.53334400    2.37744400    4.01176000
 H                 -0.87035300    0.87080300    3.34972500
 C                 -3.41246300    2.87976100    2.04464200
 H                 -3.69625800    3.24038800    1.05239800
 H                 -3.22110800    3.74656800    2.69012200
 H                 -4.26715600    2.33575600    2.46476300
 C                 -4.55225800   -2.37112900    1.04082500
 H                 -4.88503900   -2.09113800    2.04998000
 C                 -3.90747000   -3.76705900    1.13899200
 H                 -3.56588900   -4.11764600    0.15784000
 H                 -4.62766800   -4.50018800    1.52306800
 H                 -3.04000700   -3.75353600    1.80807400
 C                 -5.80380100   -2.40818600    0.14031500
 H                 -6.28803100   -1.42634100    0.09692400
 H                 -6.53384200   -3.13344600    0.52033400
 H                 -5.54772900   -2.70101500   -0.88512700
 C                 -1.74186900   -0.26027900   -2.63330400
 H                 -0.82724900    0.33256400   -2.74666000
 C                 -1.51731800   -1.59237700   -3.36755900
 H                 -0.71940900   -2.17670800   -2.89591300
 H                 -1.23821800   -1.39992200   -4.41078200
 H                 -2.42431000   -2.20883300   -3.38550000
 C                 -2.89365400    0.51899800   -3.30671800
 H                 -3.82743000   -0.05474400   -3.25392700
 H                 -2.66807400    0.69831900   -4.36563600
 H                 -3.06098800    1.48199200   -2.81765200
 C                  2.83634400   -0.83214300   -1.05919600
 C                  4.24254600   -0.80484300   -0.42858600
 C                  2.59013600   -2.21257200   -1.71049400
 H                  2.81443000   -0.07845100   -1.85525600
 C                  5.33022000   -1.13705200   -1.46752900
 H                  4.29798100   -1.54420800    0.38175700
 H                  4.44386300    0.17246200    0.01308100
 C                  3.67367100   -2.55333400   -2.74775300
 H                  2.57288800   -2.98529800   -0.92829100
 H                  1.59891200   -2.23642200   -2.17585900
 C                  5.08209000   -2.49332600   -2.14081200
 H                  6.31754200   -1.12390200   -0.98644900
 H                  5.34595300   -0.34883700   -2.23558900
 H                  3.48184100   -3.54811600   -3.17064900
 H                  3.60950100   -1.84084500   -3.58427100
 H                  5.84150500   -2.68374200   -2.91042400
 H                  5.18732000   -3.29245200   -1.39187600
 C                  1.82910500   -0.11032100    1.86786700
 C                  2.21895100   -1.43705900    2.55685600
 C                  2.79388500    1.02417200    2.26616900
 H                  0.83912900    0.16346200    2.26230400
 C                  2.29165000   -1.27347700    4.08506600
 H                  3.19721700   -1.77521300    2.18910200
 H                  1.49410200   -2.21731400    2.29407500
 C                  2.85124700    1.17969500    3.79809000
 H                  3.80231800    0.81140700    1.89350000
 H                  2.48007100    1.96822500    1.81045900
 C                  3.23841600   -0.13463500    4.49083100
 H                  2.61046500   -2.21812700    4.54474700
 H                  1.28362800   -1.06230500    4.47172800
 H                  3.56198100    1.97405500    4.06261900
 H                  1.86742000    1.50691800    4.16594300
 H                  3.23627700   -0.00677100    5.58111300
 H                  4.26807800   -0.40218200    4.20915500
 H                 -3.86821800   -0.07141800    2.30041100
 C                  4.03122000    2.98838000   -1.04066700
 H                  4.99708400    2.51961500   -0.84285300
 H                  3.98215400    3.28038100   -2.09809400
 H                  3.92880800    3.88459600   -0.41437400
 O                  3.05513300    2.01291700   -0.72058300
 C                 -2.78011800    4.40179000   -1.66351500
 H                 -3.87068100    4.35816800   -1.65200200
 H                 -2.44487900    5.23287800   -1.02836500
 H                 -2.43561200    4.57269000   -2.69240000
 O                 -2.33813100    3.15076600   -1.16500000

