%chk=PhF.chk
# hf/3-21g geom=connectivity

Title Card Required

0 1
 C                 -1.63710776   -0.08867667    0.00000000
 C                 -0.24194776   -0.08867667    0.00000000
 C                  0.45559024    1.11907433    0.00000000
 C                 -0.24206376    2.32758333   -0.00119900
 C                 -1.63688876    2.32750533   -0.00167800
 C                 -2.33448976    1.11929933   -0.00068200
 H                 -2.18686676   -1.04099367    0.00045000
 H                  1.55527024    1.11915433    0.00063400
 H                  0.30813624    3.27972633   -0.00125800
 H                 -2.18701076    3.27978633   -0.00263100
 H                 -3.43409376    1.11948233   -0.00086200
 F                  0.43265982   -1.25803633    0.00161437

 1 2 1.5 6 1.5 7 1.0
 2 3 1.5 12 1.0
 3 4 1.5 8 1.0
 4 5 1.5 9 1.0
 5 6 1.5 10 1.0
 6 11 1.0
 7
 8
 9
 10
 11
 12

